Problem:    
Rows:       260
Columns:    89 (72 integer, 72 binary)
Non-zeros:  974
Status:     INTEGER OPTIMAL
Objective:  value = 80.785938 (MINimum)

   No.   Row name        Activity     Lower bound   Upper bound
------ ------------    ------------- ------------- -------------
     1 r.5                   1080.79             0               
     2 r.6                   -977.79      -980.963               
     3 r.7                   80.7859             0               
     4 r.8                   40.6147      -962.011               
     5 r.9                   1080.79             0               
     6 r.10                 -958.184      -980.864               
     7 r.11                  80.7859             0               
     8 r.12                  41.8158      -961.675               
     9 r.13                  80.7859             0               
    10 r.14                  40.6245      -998.411               
    11 r.15                  1080.79             0               
    12 r.16                 -960.306      -995.239               
    13 r.17                  80.7859             0               
    14 r.18                   42.286       -996.01               
    15 r.19                  1080.79             0               
    16 r.20                 -965.527      -992.728               
    17 r.21                  80.7859             0               
    18 r.22                  40.1543      -991.006               
    19 r.23                  1080.79             0               
    20 r.24                 -972.799      -981.297               
    21 r.25                  1080.79             0               
    22 r.26                 -998.238      -998.238               
    23 r.27                  80.7859             0               
    24 r.28                   4.5537      -996.457               
    25 r.29                  1080.79             0               
    26 r.30                 -919.214       -961.03               
    27 r.31                  80.7859             0               
    28 r.32                  80.7859      -958.474               
    29 r.33                  80.7859             0               
    30 r.34                  80.7859      -962.292               
    31 r.35                  1080.79             0               
    32 r.36                 -919.214      -959.368               
    33 r.37                        1             1             = 
    34 r.38                        1             1             = 
    35 r.39                        1             1             = 
    36 r.40                        1             1             = 
    37 r.41                        1             1             = 
    38 r.42                        1             1             = 
    39 r.43                        1             1             = 
    40 r.44                        1             1             = 
    41 r.45                        2             2               
    42 r.46                       -2         -1001               
    43 r.47                 -980.864      -980.864               
    44 r.48                     1000             2               
    45 r.49                    -1000         -1001               
    46 r.50                  2001.66      -961.675               
    47 r.51                     1001             2               
    48 r.52                    -1001         -1001               
    49 r.53                  2017.94      -998.411               
    50 r.54                     1001             2               
    51 r.55                    -1001         -1001               
    52 r.56                  1999.54      -995.239               
    53 r.57                     1001             2               
    54 r.58                    -1001         -1001               
    55 r.59                  2019.61       -996.01               
    56 r.60                     1001             2               
    57 r.61                    -1001         -1001               
    58 r.62                  1994.32      -992.728               
    59 r.63                     1001             2               
    60 r.64                    -1001         -1001               
    61 r.65                  2017.47      -991.006               
    62 r.66                     1001             2               
    63 r.67                    -1001         -1001               
    64 r.68                  1987.05      -981.297               
    65 r.69                 -980.963      -980.963               
    66 r.70                  37.4423      -962.011               
    67 r.71                 -980.963      -980.963               
    68 r.72                  37.4423      -962.011               
    69 r.73                 -941.894       -961.03               
    70 r.74                   58.106      -958.474               
    71 r.75                 -959.368       -961.03               
    72 r.76                  40.6316      -958.474               
    73 r.77                   58.106      -962.292               
    74 r.78                 -941.894      -959.368               
    75 r.79                  40.6316      -962.292               
    76 r.80                 -959.368      -959.368               
    77 r.81                        2             2               
    78 r.82                       -2         -1001               
    79 r.83                  980.394       19.0373               
    80 r.84                     1000             2               
    81 r.85                    -1000         -1001               
    82 r.86                   1998.8       37.9893               
    83 r.87                     1001             2               
    84 r.88                    -1001         -1001               
    85 r.89                  1998.81      -998.411               
    86 r.90                     1001             2               
    87 r.91                    -1001         -1001               
    88 r.92                  1997.88      -995.239               
    89 r.93                     1001             2               
    90 r.94                    -1001         -1001               
    91 r.95                  2000.47       -996.01               
    92 r.96                     1001             2               
    93 r.97                    -1001         -1001               
    94 r.98                  1992.66      -992.728               
    95 r.99                     1001             2               
    96 r.100                   -1001         -1001               
    97 r.101                 1998.34      -991.006               
    98 r.102                    1001             2               
    99 r.103                   -1001         -1001               
   100 r.104                 1985.39      -981.297               
   101 r.105                -961.357      -980.864               
   102 r.106                 38.6434      -961.675               
   103 r.107                -961.357      -980.864               
   104 r.108                 38.6434      -961.675               
   105 r.109                 -961.03       -961.03               
   106 r.110                 38.9701      -958.474               
   107 r.111                 -961.03       -961.03               
   108 r.112                 38.9701      -958.474               
   109 r.113                    1001             2               
   110 r.114                   -1001         -1001               
   111 r.115                 2038.97      -962.292               
   112 r.116                    1001             2               
   113 r.117                   -1001         -1001               
   114 r.118                 2038.97      -959.368               
   115 r.119                    1001             2               
   116 r.120                   -1001         -1001               
   117 r.121                 1982.06       19.0373               
   118 r.122                    1001             2               
   119 r.123                   -1001         -1001               
   120 r.124                 2000.46       37.9893               
   121 r.125                    1001             2               
   122 r.126                   -1001         -1001               
   123 r.127                 2001.66       19.1359               
   124 r.128                    1001             2               
   125 r.129                   -1001         -1001               
   126 r.130                 2001.66       38.3247               
   127 r.131                    1000             2               
   128 r.132                   -1000         -1001               
   129 r.133                 2002.13       -996.01               
   130 r.134                       2             2               
   131 r.135                      -2         -1001               
   132 r.136                -5.68139      -992.728               
   133 r.137                    1000             2               
   134 r.138                   -1000         -1001               
   135 r.139                    2000      -991.006               
   136 r.140                       2             2               
   137 r.141                      -2         -1001               
   138 r.142                -12.9534      -981.297               
   139 r.143                  37.452      -998.411               
   140 r.144                -963.479      -995.239               
   141 r.145                  37.452      -998.411               
   142 r.146                -963.479      -995.239               
   143 r.147                -959.368       -961.03               
   144 r.148                 40.6316      -958.474               
   145 r.149                -959.368       -961.03               
   146 r.150                 40.6316      -958.474               
   147 r.151                 40.6316      -962.292               
   148 r.152                -959.368      -959.368               
   149 r.153                 40.6316      -962.292               
   150 r.154                -959.368      -959.368               
   151 r.155                    1001             2               
   152 r.156                   -1001         -1001               
   153 r.157                 1980.39       19.0373               
   154 r.158                    1001             2               
   155 r.159                   -1001         -1001               
   156 r.160                 2005.68       37.9893               
   157 r.161                    1001             2               
   158 r.162                   -1001         -1001               
   159 r.163                    2000       19.1359               
   160 r.164                    1001             2               
   161 r.165                   -1001         -1001               
   162 r.166                 2006.88       38.3247               
   163 r.167                    1000             2               
   164 r.168                   -1000         -1001               
   165 r.169                 1998.81       1.58877               
   166 r.170                       2             2               
   167 r.171                      -2         -1001               
   168 r.172                 4.76058       4.76058               
   169 r.173                    1000             2               
   170 r.174                   -1000         -1001               
   171 r.175                 1998.34      -991.006               
   172 r.176                       2             2               
   173 r.177                      -2         -1001               
   174 r.178                -7.73239      -981.297               
   175 r.179                 39.1135       -996.01               
   176 r.180                  -968.7      -992.728               
   177 r.181                 39.1135       -996.01               
   178 r.182                  -968.7      -992.728               
   179 r.183                 -961.03       -961.03               
   180 r.184                 38.9701      -958.474               
   181 r.185                -954.147       -961.03               
   182 r.186                 45.8526      -958.474               
   183 r.187                    1000             2               
   184 r.188                   -1000         -1001               
   185 r.189                 2038.97      -962.292               
   186 r.190                       2             2               
   187 r.191                      -2         -1001               
   188 r.192                -954.147      -959.368               
   189 r.193                    1001             2               
   190 r.194                   -1001         -1001               
   191 r.195                 1982.06       19.0373               
   192 r.196                    1001             2               
   193 r.197                   -1001         -1001               
   194 r.198                 2013.41       37.9893               
   195 r.199                    1001             2               
   196 r.200                   -1001         -1001               
   197 r.201                 2001.66       19.1359               
   198 r.202                    1001             2               
   199 r.203                   -1001         -1001               
   200 r.204                 2014.61       38.3247               
   201 r.205                    1000             2               
   202 r.206                   -1000         -1001               
   203 r.207                 2000.47       1.58877               
   204 r.208                       2             2               
   205 r.209                      -2         -1001               
   206 r.210                  12.493       4.76058               
   207 r.211                    1000             2               
   208 r.212                   -1000         -1001               
   209 r.213                 2002.13        3.9901               
   210 r.214                       2             2               
   211 r.215                      -2         -1001               
   212 r.216                 7.27199       7.27199               
   213 r.217                 36.9819      -991.006               
   214 r.218                -975.972      -981.297               
   215 r.219                 36.9819      -991.006               
   216 r.220                -975.972      -981.297               
   217 r.221                    1001             2               
   218 r.222                   -1001         -1001               
   219 r.223                 2040.63       -961.03               
   220 r.224                    1001             2               
   221 r.225                   -1001         -1001               
   222 r.226                 2053.58      -958.474               
   223 r.227                 40.6316      -962.292               
   224 r.228                -959.368      -959.368               
   225 r.229                  53.585      -962.292               
   226 r.230                -946.415      -959.368               
   227 r.231                -922.387       -961.03               
   228 r.232                 77.6135      -958.474               
   229 r.233                -922.387       -961.03               
   230 r.234                 77.6135      -958.474               
   231 r.235                    1001             2               
   232 r.236                   -1001         -1001               
   233 r.237                 1959.37       8.99428               
   234 r.238                    1001             2               
   235 r.239                   -1001         -1001               
   236 r.240                 1946.42       18.7027               
   237 r.241                    1001             2               
   238 r.242                   -1001         -1001               
   239 r.243                    2000      -962.292               
   240 r.244                    1001             2               
   241 r.245                   -1001         -1001               
   242 r.246                    2000      -959.368               
   243 r.247                    1001             2               
   244 r.248                   -1001         -1001               
   245 r.249                 1961.03       19.1359               
   246 r.250                    1001             2               
   247 r.251                   -1001         -1001               
   248 r.252                 1961.03       38.3247               
   249 r.253                    1000             2               
   250 r.254                   -1000         -1001               
   251 r.255                  1961.5        3.9901               
   252 r.256                       2             2               
   253 r.257                      -2         -1001               
   254 r.258                 953.687       7.27199               
   255 r.259                    1001             2               
   256 r.260                   -1001         -1001               
   257 r.261                    2000       38.9701               
   258 r.262                    1001             2               
   259 r.263                   -1001         -1001               
   260 r.264                    2000       41.5265               

   No. Column name       Activity     Lower bound   Upper bound
------ ------------    ------------- ------------- -------------
     1 tt                    80.7859             0               
     2 s_1_1        *              1             0             1 
     3 t_1_1                  58.106             0               
     4 s_1_8        *              0             0             1 
     5 s_1_7        *              1             0             1 
     6 s_2_1        *              0             0             1 
     7 t_2_1                 40.6316             0               
     8 s_2_8        *              1             0             1 
     9 s_2_7        *              0             0             1 
    10 s_1_2        *              1             0             1 
    11 t_1_2                 38.9701             0               
    12 s_2_2        *              0             0             1 
    13 t_2_2                 38.9701             0               
    14 s_1_3        *              0             0             1 
    15 t_1_3                 40.6316             0               
    16 s_2_3        *              1             0             1 
    17 t_2_3                 40.6316             0               
    18 s_1_4        *              0             0             1 
    19 t_1_4                 38.9701             0               
    20 s_2_4        *              1             0             1 
    21 t_2_4                 45.8526             0               
    22 s_1_5        *              0             0             1 
    23 t_1_5                 40.6316             0               
    24 s_2_5        *              1             0             1 
    25 t_2_5                  53.585             0               
    26 s_1_6        *              1             0             1 
    27 t_1_6                 77.6135             0               
    28 s_2_6        *              0             0             1 
    29 t_2_6                 77.6135             0               
    30 t_1_7                       0             0               
    31 t_2_7                       0             0               
    32 t_1_8                       0             0               
    33 t_2_8                       0             0               
    34 r_1_1_2      *              0             0             1 
    35 u_1_1_2      *              1             0             1 
    36 r_2_1_2      *              1             0             1 
    37 u_2_1_2      *              0             0             1 
    38 r_1_1_3      *              1             0             1 
    39 u_1_1_3      *              0             0             1 
    40 r_2_1_3      *              1             0             1 
    41 u_2_1_3      *              0             0             1 
    42 r_1_1_4      *              1             0             1 
    43 u_1_1_4      *              0             0             1 
    44 r_2_1_4      *              1             0             1 
    45 u_2_1_4      *              0             0             1 
    46 r_1_1_5      *              1             0             1 
    47 u_1_1_5      *              0             0             1 
    48 r_2_1_5      *              1             0             1 
    49 u_2_1_5      *              0             0             1 
    50 r_1_2_3      *              1             0             1 
    51 u_1_2_3      *              0             0             1 
    52 r_2_2_3      *              1             0             1 
    53 u_2_2_3      *              0             0             1 
    54 r_1_2_4      *              1             0             1 
    55 u_1_2_4      *              0             0             1 
    56 r_2_2_4      *              1             0             1 
    57 u_2_2_4      *              0             0             1 
    58 r_1_2_5      *              1             0             1 
    59 u_1_2_5      *              0             0             1 
    60 r_2_2_5      *              1             0             1 
    61 u_2_2_5      *              0             0             1 
    62 r_1_2_8      *              1             0             1 
    63 u_1_2_8      *              0             0             1 
    64 r_2_2_8      *              1             0             1 
    65 u_2_2_8      *              0             0             1 
    66 r_1_3_4      *              1             0             1 
    67 u_1_3_4      *              0             0             1 
    68 r_2_3_4      *              0             0             1 
    69 u_2_3_4      *              0             0             1 
    70 r_1_3_5      *              1             0             1 
    71 u_1_3_5      *              0             0             1 
    72 r_2_3_5      *              0             0             1 
    73 u_2_3_5      *              0             0             1 
    74 r_1_4_5      *              1             0             1 
    75 u_1_4_5      *              0             0             1 
    76 r_2_4_5      *              0             0             1 
    77 u_2_4_5      *              0             0             1 
    78 r_1_4_8      *              1             0             1 
    79 u_1_4_8      *              0             0             1 
    80 r_2_4_8      *              0             0             1 
    81 u_2_4_8      *              1             0             1 
    82 r_1_5_7      *              1             0             1 
    83 u_1_5_7      *              0             0             1 
    84 r_2_5_7      *              1             0             1 
    85 u_2_5_7      *              0             0             1 
    86 r_1_7_8      *              1             0             1 
    87 u_1_7_8      *              0             0             1 
    88 r_2_7_8      *              1             0             1 
    89 u_2_7_8      *              0             0             1 

Integer feasibility conditions:

KKT.PE: max.abs.err = 2.27e-13 on row 12
        max.rel.err = 1.09e-16 on row 12
        High quality

KKT.PB: max.abs.err = 2.27e-13 on row 22
        max.rel.err = 2.28e-16 on row 22
        High quality

End of output
